10000   77   45   51   55   98   21   95   9   29   
44   10000   61   48   8   84   33   88   91   58   
75   41   10000   62   4   3   7   85   79   62   
14   46   60   10000   12   35   92   46   61   92   
81   58   8   45   10000   16   42   88   13   43   
17   85   84   41   96   10000   40   75   29   20   
99   42   83   88   60   55   10000   61   61   44   
47   7   12   9   69   45   60   10000   36   81   
1   38   96   85   85   54   95   57   10000   13   
35   56   35   54   37   6   64   31   71   10000   
